outputs/case_357.model.txt
severely_insufficient_measures_executed = False
capital_adequacy_ratio = 40
improvement_plan_executed = False
significantly_insufficient_measures_executed = True
net_worth = -10
improvement_plan_submitted = False
net_worth_ratio = 3/2
financial_or_business_deteriorated = False
capital_insufficient_measures_executed = False
capital_significantly_insufficient_measures_executed = True
capital_level = 4
serious_insufficient_and_no_measures = False
penalty = False
capital_severely_insufficient_measures_executed = False
financial_or_business_deterioration = False